p cnf 53 163
a 24 43 0
e 1 2 3 4 5 6 7 8 9 10 11 12 13 14 15 16 17 18 19 20 21 22 23 25 26 27 28 29 30 31 32 33 34 35 36 37 38 39 40 41 42 44 45 46 47 48 49 50 51 52 53 0
-1 2 -3 0
1 -2 -3 0
-1 -2 3 0
1 2 3 0
4 1 -5 0
-4 -1 -5 0
4 -1 5 0
-4 1 5 0
-7 2 0
-7 6 0
-2 -6 7 0
8 -5 0
8 7 0
5 -7 -8 0
3 -8 -9 0
-3 8 -9 0
3 8 9 0
-3 -8 9 0
-11 -1 0
-11 10 0
1 -10 11 0
-12 -11 0
-12 2 0
11 -2 12 0
-13 -9 0
-13 -12 0
9 12 13 0
-14 -10 0
-14 -4 0
10 4 14 0
15 -8 0
15 14 0
8 -14 -15 0
1 -4 -16 0
-1 4 -16 0
1 4 16 0
-1 -4 16 0
-17 15 0
-17 16 0
-15 -16 17 0
13 17 -18 0
-13 -17 -18 0
13 -17 18 0
-13 17 18 0
-6 -19 -20 0
6 19 -20 0
-6 19 20 0
6 -19 20 0
1 -10 -21 0
-1 10 -21 0
1 10 21 0
-1 -10 21 0
-23 -21 0
-23 22 0
21 -22 23 0
20 23 -24 0
-20 -23 -24 0
20 -23 24 0
-20 23 24 0
25 -23 0
25 3 0
23 -3 -25 0
-27 -26 0
-27 -14 0
26 14 27 0
-28 -25 0
-28 -27 0
25 27 28 0
-29 26 0
-29 5 0
-26 -5 29 0
-30 22 0
-30 -29 0
-22 29 30 0
-31 -28 0
-31 30 0
28 -30 31 0
-7 3 -32 0
7 -3 -32 0
-7 -3 32 0
7 3 32 0
33 21 0
33 -5 0
-21 5 -33 0
-32 33 -34 0
32 -33 -34 0
-32 -33 34 0
32 33 34 0
31 34 -35 0
-31 -34 -35 0
31 -34 35 0
-31 34 35 0
24 35 -36 0
-24 -35 -36 0
24 -35 36 0
-24 35 36 0
37 -18 0
37 -36 0
18 36 -37 0
39 38 0
39 10 0
-38 -10 -39 0
-40 6 0
-40 -4 0
-6 4 40 0
-41 22 0
-41 -14 0
-22 14 41 0
40 41 -42 0
-40 -41 -42 0
40 -41 42 0
-40 41 42 0
-43 39 0
-43 42 0
-39 -42 43 0
-26 6 -44 0
26 -6 -44 0
-26 -6 44 0
26 6 44 0
45 -43 0
45 -44 0
43 44 -45 0
-37 -45 -46 0
37 45 -46 0
-37 45 46 0
37 -45 46 0
48 -3 0
48 -47 0
3 47 -48 0
-23 4 -49 0
23 -4 -49 0
-23 -4 49 0
23 4 49 0
50 48 0
50 49 0
-48 -49 -50 0
-21 23 -51 0
21 -23 -51 0
-21 -23 51 0
21 23 51 0
-50 -51 -52 0
50 51 -52 0
-50 51 52 0
50 -51 52 0
53 46 0
53 52 0
-46 -52 -53 0
15 44 -22 -40 -2 0
30 -36 47 -15 38 0
-19 46 50 -42 -40 17 0
-20 6 10 0
16 -11 -18 -44 -42 -32 0
-50 28 -18 35 34 45 9 14 0
-48 2 -7 -9 30 37 -20 0
-10 18 -2 41 50 -38 0
-35 29 -37 10 0
-21 -19 -17 -26 0
46 22 17 18 -24 25 -14 0
-3 -2 14 18 -12 -9 40 0
49 14 -41 0
25 -48 51 6 21 -14 -50 0
16 -17 -35 -39 0
53 0
